; benchmark generated from python API
(set-info :status unknown)
(declare-fun cell_1_4 () Int)
(declare-fun cell_1_7 () Int)
(declare-fun cell_2_3 () Int)
(declare-fun cell_2_8 () Int)
(declare-fun cell_3_2 () Int)
(declare-fun cell_3_5 () Int)
(declare-fun cell_4_7 () Int)
(declare-fun cell_4_9 () Int)
(declare-fun cell_5_1 () Int)
(declare-fun cell_5_3 () Int)
(declare-fun cell_6_4 () Int)
(declare-fun cell_6_6 () Int)
(declare-fun cell_7_2 () Int)
(declare-fun cell_7_5 () Int)
(declare-fun cell_8_8 () Int)
(declare-fun cell_8_9 () Int)
(declare-fun cell_9_1 () Int)
(declare-fun cell_1_1 () Int)
(declare-fun cell_2_1 () Int)
(declare-fun cell_3_1 () Int)
(declare-fun cell_4_1 () Int)
(declare-fun cell_6_1 () Int)
(declare-fun cell_7_1 () Int)
(declare-fun cell_8_1 () Int)
(declare-fun cell_1_2 () Int)
(declare-fun cell_2_2 () Int)
(declare-fun cell_4_2 () Int)
(declare-fun cell_5_2 () Int)
(declare-fun cell_6_2 () Int)
(declare-fun cell_8_2 () Int)
(declare-fun cell_9_2 () Int)
(declare-fun cell_1_3 () Int)
(declare-fun cell_3_3 () Int)
(declare-fun cell_4_3 () Int)
(declare-fun cell_6_3 () Int)
(declare-fun cell_7_3 () Int)
(declare-fun cell_8_3 () Int)
(declare-fun cell_9_3 () Int)
(declare-fun cell_2_4 () Int)
(declare-fun cell_3_4 () Int)
(declare-fun cell_4_4 () Int)
(declare-fun cell_5_4 () Int)
(declare-fun cell_7_4 () Int)
(declare-fun cell_8_4 () Int)
(declare-fun cell_9_4 () Int)
(declare-fun cell_1_5 () Int)
(declare-fun cell_2_5 () Int)
(declare-fun cell_4_5 () Int)
(declare-fun cell_5_5 () Int)
(declare-fun cell_6_5 () Int)
(declare-fun cell_8_5 () Int)
(declare-fun cell_9_5 () Int)
(declare-fun cell_1_6 () Int)
(declare-fun cell_2_6 () Int)
(declare-fun cell_3_6 () Int)
(declare-fun cell_4_6 () Int)
(declare-fun cell_5_6 () Int)
(declare-fun cell_7_6 () Int)
(declare-fun cell_8_6 () Int)
(declare-fun cell_9_6 () Int)
(declare-fun cell_2_7 () Int)
(declare-fun cell_3_7 () Int)
(declare-fun cell_5_7 () Int)
(declare-fun cell_6_7 () Int)
(declare-fun cell_7_7 () Int)
(declare-fun cell_8_7 () Int)
(declare-fun cell_9_7 () Int)
(declare-fun cell_1_8 () Int)
(declare-fun cell_3_8 () Int)
(declare-fun cell_4_8 () Int)
(declare-fun cell_5_8 () Int)
(declare-fun cell_6_8 () Int)
(declare-fun cell_7_8 () Int)
(declare-fun cell_9_8 () Int)
(declare-fun cell_1_9 () Int)
(declare-fun cell_2_9 () Int)
(declare-fun cell_3_9 () Int)
(declare-fun cell_5_9 () Int)
(declare-fun cell_6_9 () Int)
(declare-fun cell_7_9 () Int)
(declare-fun cell_9_9 () Int)
(assert
 (= cell_1_4 1))
(assert
 (= cell_1_7 2))
(assert
 (= cell_2_3 2))
(assert
 (= cell_2_8 1))
(assert
 (= cell_3_2 1))
(assert
 (= cell_3_5 2))
(assert
 (= cell_4_7 1))
(assert
 (= cell_4_9 2))
(assert
 (= cell_5_1 2))
(assert
 (= cell_5_3 1))
(assert
 (= cell_6_4 2))
(assert
 (= cell_6_6 1))
(assert
 (= cell_7_2 2))
(assert
 (= cell_7_5 1))
(assert
 (= cell_8_8 2))
(assert
 (= cell_8_9 1))
(assert
 (= cell_9_1 1))
(assert
 (let (($x1850 (= cell_1_1 9)))
 (let (($x1141 (= cell_1_1 8)))
 (let (($x3735 (= cell_1_1 7)))
 (let (($x2165 (= cell_1_1 6)))
 (let (($x3306 (= cell_1_1 5)))
 (let (($x1879 (= cell_1_1 4)))
 (let (($x1007 (= cell_1_1 3)))
 (let (($x3817 (= cell_1_1 2)))
 (let (($x97 (= cell_1_1 1)))
 (or $x97 $x3817 $x1007 $x1879 $x3306 $x2165 $x3735 $x1141 $x1850)))))))))))
(assert
 (let (($x2375 (= cell_2_1 9)))
 (let (($x4134 (= cell_2_1 8)))
 (let (($x972 (= cell_2_1 7)))
 (let (($x8028 (= cell_2_1 6)))
 (let (($x3091 (= cell_2_1 5)))
 (let (($x677 (= cell_2_1 4)))
 (let (($x1718 (= cell_2_1 3)))
 (let (($x1428 (= cell_2_1 2)))
 (let (($x2062 (= cell_2_1 1)))
 (or $x2062 $x1428 $x1718 $x677 $x3091 $x8028 $x972 $x4134 $x2375)))))))))))
(assert
 (let (($x1176 (= cell_3_1 9)))
 (let (($x157 (= cell_3_1 8)))
 (let (($x2352 (= cell_3_1 7)))
 (let (($x3872 (= cell_3_1 6)))
 (let (($x3049 (= cell_3_1 5)))
 (let (($x2163 (= cell_3_1 4)))
 (let (($x1733 (= cell_3_1 3)))
 (let (($x2553 (= cell_3_1 2)))
 (let (($x2426 (= cell_3_1 1)))
 (or $x2426 $x2553 $x1733 $x2163 $x3049 $x3872 $x2352 $x157 $x1176)))))))))))
(assert
 (let (($x3375 (= cell_4_1 9)))
 (let (($x1679 (= cell_4_1 8)))
 (let (($x3495 (= cell_4_1 7)))
 (let (($x2009 (= cell_4_1 6)))
 (let (($x1884 (= cell_4_1 5)))
 (let (($x1760 (= cell_4_1 4)))
 (let (($x2638 (= cell_4_1 3)))
 (let (($x883 (= cell_4_1 2)))
 (let (($x2276 (= cell_4_1 1)))
 (or $x2276 $x883 $x2638 $x1760 $x1884 $x2009 $x3495 $x1679 $x3375)))))))))))
(assert
 (let (($x2323 (= cell_5_1 2)))
 (or (= cell_5_1 1) $x2323 (= cell_5_1 3) (= cell_5_1 4) (= cell_5_1 5) (= cell_5_1 6) (= cell_5_1 7) (= cell_5_1 8) (= cell_5_1 9))))
(assert
 (let (($x2116 (= cell_6_1 9)))
 (let (($x729 (= cell_6_1 8)))
 (let (($x2648 (= cell_6_1 7)))
 (let (($x1188 (= cell_6_1 6)))
 (let (($x3167 (= cell_6_1 5)))
 (let (($x351 (= cell_6_1 4)))
 (let (($x2028 (= cell_6_1 3)))
 (let (($x822 (= cell_6_1 2)))
 (let (($x3866 (= cell_6_1 1)))
 (or $x3866 $x822 $x2028 $x351 $x3167 $x1188 $x2648 $x729 $x2116)))))))))))
(assert
 (let (($x701 (= cell_7_1 9)))
 (let (($x1994 (= cell_7_1 8)))
 (let (($x146 (= cell_7_1 7)))
 (let (($x2314 (= cell_7_1 6)))
 (let (($x1392 (= cell_7_1 5)))
 (let (($x2339 (= cell_7_1 4)))
 (let (($x2560 (= cell_7_1 3)))
 (let (($x3505 (= cell_7_1 2)))
 (let (($x1321 (= cell_7_1 1)))
 (or $x1321 $x3505 $x2560 $x2339 $x1392 $x2314 $x146 $x1994 $x701)))))))))))
(assert
 (let (($x4052 (= cell_8_1 9)))
 (let (($x3622 (= cell_8_1 8)))
 (let (($x79 (= cell_8_1 7)))
 (let (($x500 (= cell_8_1 6)))
 (let (($x1988 (= cell_8_1 5)))
 (let (($x462 (= cell_8_1 4)))
 (let (($x3238 (= cell_8_1 3)))
 (let (($x3568 (= cell_8_1 2)))
 (let (($x2537 (= cell_8_1 1)))
 (or $x2537 $x3568 $x3238 $x462 $x1988 $x500 $x79 $x3622 $x4052)))))))))))
(assert
 (let (($x2893 (= cell_9_1 1)))
 (or $x2893 (= cell_9_1 2) (= cell_9_1 3) (= cell_9_1 4) (= cell_9_1 5) (= cell_9_1 6) (= cell_9_1 7) (= cell_9_1 8) (= cell_9_1 9))))
(assert
 (let (($x299 (= cell_1_2 9)))
 (let (($x3530 (= cell_1_2 8)))
 (let (($x1755 (= cell_1_2 7)))
 (let (($x296 (= cell_1_2 6)))
 (let (($x2657 (= cell_1_2 5)))
 (let (($x2335 (= cell_1_2 4)))
 (let (($x4049 (= cell_1_2 3)))
 (let (($x2324 (= cell_1_2 2)))
 (let (($x2499 (= cell_1_2 1)))
 (or $x2499 $x2324 $x4049 $x2335 $x2657 $x296 $x1755 $x3530 $x299)))))))))))
(assert
 (let (($x8013 (= cell_2_2 9)))
 (let (($x934 (= cell_2_2 8)))
 (let (($x3453 (= cell_2_2 7)))
 (let (($x1373 (= cell_2_2 6)))
 (let (($x3140 (= cell_2_2 5)))
 (let (($x2875 (= cell_2_2 4)))
 (let (($x2718 (= cell_2_2 3)))
 (let (($x1524 (= cell_2_2 2)))
 (let (($x1045 (= cell_2_2 1)))
 (or $x1045 $x1524 $x2718 $x2875 $x3140 $x1373 $x3453 $x934 $x8013)))))))))))
(assert
 (let (($x1986 (= cell_3_2 1)))
 (or $x1986 (= cell_3_2 2) (= cell_3_2 3) (= cell_3_2 4) (= cell_3_2 5) (= cell_3_2 6) (= cell_3_2 7) (= cell_3_2 8) (= cell_3_2 9))))
(assert
 (let (($x801 (= cell_4_2 9)))
 (let (($x2152 (= cell_4_2 8)))
 (let (($x2555 (= cell_4_2 7)))
 (let (($x2705 (= cell_4_2 6)))
 (let (($x2666 (= cell_4_2 5)))
 (let (($x1168 (= cell_4_2 4)))
 (let (($x2432 (= cell_4_2 3)))
 (let (($x1987 (= cell_4_2 2)))
 (let (($x1892 (= cell_4_2 1)))
 (or $x1892 $x1987 $x2432 $x1168 $x2666 $x2705 $x2555 $x2152 $x801)))))))))))
(assert
 (let (($x590 (= cell_5_2 9)))
 (let (($x4155 (= cell_5_2 8)))
 (let (($x2823 (= cell_5_2 7)))
 (let (($x287 (= cell_5_2 6)))
 (let (($x882 (= cell_5_2 5)))
 (let (($x2279 (= cell_5_2 4)))
 (let (($x4180 (= cell_5_2 3)))
 (let (($x2176 (= cell_5_2 2)))
 (let (($x2334 (= cell_5_2 1)))
 (or $x2334 $x2176 $x4180 $x2279 $x882 $x287 $x2823 $x4155 $x590)))))))))))
(assert
 (let (($x686 (= cell_6_2 9)))
 (let (($x3787 (= cell_6_2 8)))
 (let (($x4153 (= cell_6_2 7)))
 (let (($x1913 (= cell_6_2 6)))
 (let (($x1515 (= cell_6_2 5)))
 (let (($x2189 (= cell_6_2 4)))
 (let (($x189 (= cell_6_2 3)))
 (let (($x1103 (= cell_6_2 2)))
 (let (($x2616 (= cell_6_2 1)))
 (or $x2616 $x1103 $x189 $x2189 $x1515 $x1913 $x4153 $x3787 $x686)))))))))))
(assert
 (let (($x1039 (= cell_7_2 2)))
 (or (= cell_7_2 1) $x1039 (= cell_7_2 3) (= cell_7_2 4) (= cell_7_2 5) (= cell_7_2 6) (= cell_7_2 7) (= cell_7_2 8) (= cell_7_2 9))))
(assert
 (let (($x2518 (= cell_8_2 9)))
 (let (($x1807 (= cell_8_2 8)))
 (let (($x386 (= cell_8_2 7)))
 (let (($x2025 (= cell_8_2 6)))
 (let (($x118 (= cell_8_2 5)))
 (let (($x2574 (= cell_8_2 4)))
 (let (($x2150 (= cell_8_2 3)))
 (let (($x1339 (= cell_8_2 2)))
 (let (($x2023 (= cell_8_2 1)))
 (or $x2023 $x1339 $x2150 $x2574 $x118 $x2025 $x386 $x1807 $x2518)))))))))))
(assert
 (let (($x20 (= cell_9_2 2)))
 (let (($x1308 (= cell_9_2 1)))
 (or $x1308 $x20 (= cell_9_2 3) (= cell_9_2 4) (= cell_9_2 5) (= cell_9_2 6) (= cell_9_2 7) (= cell_9_2 8) (= cell_9_2 9)))))
(assert
 (let (($x2572 (= cell_1_3 9)))
 (let (($x2221 (= cell_1_3 8)))
 (let (($x2398 (= cell_1_3 7)))
 (let (($x10 (= cell_1_3 6)))
 (let (($x2511 (= cell_1_3 5)))
 (let (($x800 (= cell_1_3 4)))
 (let (($x1444 (= cell_1_3 3)))
 (let (($x905 (= cell_1_3 2)))
 (let (($x790 (= cell_1_3 1)))
 (or $x790 $x905 $x1444 $x800 $x2511 $x10 $x2398 $x2221 $x2572)))))))))))
(assert
 (let (($x264 (= cell_2_3 2)))
 (or (= cell_2_3 1) $x264 (= cell_2_3 3) (= cell_2_3 4) (= cell_2_3 5) (= cell_2_3 6) (= cell_2_3 7) (= cell_2_3 8) (= cell_2_3 9))))
(assert
 (let (($x1810 (= cell_3_3 9)))
 (let (($x1114 (= cell_3_3 8)))
 (let (($x448 (= cell_3_3 7)))
 (let (($x941 (= cell_3_3 6)))
 (let (($x613 (= cell_3_3 5)))
 (let (($x827 (= cell_3_3 4)))
 (let (($x2623 (= cell_3_3 3)))
 (let (($x1725 (= cell_3_3 2)))
 (let (($x1075 (= cell_3_3 1)))
 (or $x1075 $x1725 $x2623 $x827 $x613 $x941 $x448 $x1114 $x1810)))))))))))
(assert
 (let (($x2430 (= cell_4_3 9)))
 (let (($x2815 (= cell_4_3 8)))
 (let (($x925 (= cell_4_3 7)))
 (let (($x2946 (= cell_4_3 6)))
 (let (($x1554 (= cell_4_3 5)))
 (let (($x2431 (= cell_4_3 4)))
 (let (($x957 (= cell_4_3 3)))
 (let (($x850 (= cell_4_3 2)))
 (let (($x4119 (= cell_4_3 1)))
 (or $x4119 $x850 $x957 $x2431 $x1554 $x2946 $x925 $x2815 $x2430)))))))))))
(assert
 (let (($x2592 (= cell_5_3 1)))
 (or $x2592 (= cell_5_3 2) (= cell_5_3 3) (= cell_5_3 4) (= cell_5_3 5) (= cell_5_3 6) (= cell_5_3 7) (= cell_5_3 8) (= cell_5_3 9))))
(assert
 (let (($x34 (= cell_6_3 9)))
 (let (($x2043 (= cell_6_3 8)))
 (let (($x265 (= cell_6_3 7)))
 (let (($x2082 (= cell_6_3 6)))
 (let (($x2179 (= cell_6_3 5)))
 (let (($x364 (= cell_6_3 4)))
 (let (($x2800 (= cell_6_3 3)))
 (let (($x225 (= cell_6_3 2)))
 (let (($x274 (= cell_6_3 1)))
 (or $x274 $x225 $x2800 $x364 $x2179 $x2082 $x265 $x2043 $x34)))))))))))
(assert
 (let (($x2542 (= cell_7_3 9)))
 (let (($x2730 (= cell_7_3 8)))
 (let (($x714 (= cell_7_3 7)))
 (let (($x1115 (= cell_7_3 6)))
 (let (($x1398 (= cell_7_3 5)))
 (let (($x3115 (= cell_7_3 4)))
 (let (($x3134 (= cell_7_3 3)))
 (let (($x1100 (= cell_7_3 2)))
 (let (($x2508 (= cell_7_3 1)))
 (or $x2508 $x1100 $x3134 $x3115 $x1398 $x1115 $x714 $x2730 $x2542)))))))))))
(assert
 (let (($x3814 (= cell_8_3 9)))
 (let (($x2915 (= cell_8_3 8)))
 (let (($x2965 (= cell_8_3 7)))
 (let (($x2676 (= cell_8_3 6)))
 (let (($x1546 (= cell_8_3 5)))
 (let (($x2776 (= cell_8_3 4)))
 (let (($x621 (= cell_8_3 3)))
 (let (($x1803 (= cell_8_3 2)))
 (let (($x1331 (= cell_8_3 1)))
 (or $x1331 $x1803 $x621 $x2776 $x1546 $x2676 $x2965 $x2915 $x3814)))))))))))
(assert
 (let (($x563 (= cell_9_3 2)))
 (let (($x2900 (= cell_9_3 1)))
 (or $x2900 $x563 (= cell_9_3 3) (= cell_9_3 4) (= cell_9_3 5) (= cell_9_3 6) (= cell_9_3 7) (= cell_9_3 8) (= cell_9_3 9)))))
(assert
 (let (($x3833 (= cell_1_4 1)))
 (or $x3833 (= cell_1_4 2) (= cell_1_4 3) (= cell_1_4 4) (= cell_1_4 5) (= cell_1_4 6) (= cell_1_4 7) (= cell_1_4 8) (= cell_1_4 9))))
(assert
 (let (($x3562 (= cell_2_4 9)))
 (let (($x143 (= cell_2_4 8)))
 (let (($x289 (= cell_2_4 7)))
 (let (($x2454 (= cell_2_4 6)))
 (let (($x3394 (= cell_2_4 5)))
 (let (($x2174 (= cell_2_4 4)))
 (let (($x777 (= cell_2_4 3)))
 (let (($x2439 (= cell_2_4 2)))
 (let (($x792 (= cell_2_4 1)))
 (or $x792 $x2439 $x777 $x2174 $x3394 $x2454 $x289 $x143 $x3562)))))))))))
(assert
 (let (($x706 (= cell_3_4 9)))
 (let (($x2552 (= cell_3_4 8)))
 (let (($x227 (= cell_3_4 7)))
 (let (($x3792 (= cell_3_4 6)))
 (let (($x1487 (= cell_3_4 5)))
 (let (($x7993 (= cell_3_4 4)))
 (let (($x2533 (= cell_3_4 3)))
 (let (($x252 (= cell_3_4 2)))
 (let (($x1933 (= cell_3_4 1)))
 (or $x1933 $x252 $x2533 $x7993 $x1487 $x3792 $x227 $x2552 $x706)))))))))))
(assert
 (let (($x2564 (= cell_4_4 9)))
 (let (($x1721 (= cell_4_4 8)))
 (let (($x2478 (= cell_4_4 7)))
 (let (($x2052 (= cell_4_4 6)))
 (let (($x46 (= cell_4_4 5)))
 (let (($x2690 (= cell_4_4 4)))
 (let (($x1660 (= cell_4_4 3)))
 (let (($x1652 (= cell_4_4 2)))
 (let (($x2839 (= cell_4_4 1)))
 (or $x2839 $x1652 $x1660 $x2690 $x46 $x2052 $x2478 $x1721 $x2564)))))))))))
(assert
 (let (($x4009 (= cell_5_4 9)))
 (let (($x1579 (= cell_5_4 8)))
 (let (($x1820 (= cell_5_4 7)))
 (let (($x1502 (= cell_5_4 6)))
 (let (($x1420 (= cell_5_4 5)))
 (let (($x3350 (= cell_5_4 4)))
 (let (($x1722 (= cell_5_4 3)))
 (let (($x543 (= cell_5_4 2)))
 (let (($x186 (= cell_5_4 1)))
 (or $x186 $x543 $x1722 $x3350 $x1420 $x1502 $x1820 $x1579 $x4009)))))))))))
(assert
 (let (($x177 (= cell_6_4 2)))
 (or (= cell_6_4 1) $x177 (= cell_6_4 3) (= cell_6_4 4) (= cell_6_4 5) (= cell_6_4 6) (= cell_6_4 7) (= cell_6_4 8) (= cell_6_4 9))))
(assert
 (let (($x931 (= cell_7_4 9)))
 (let (($x3666 (= cell_7_4 8)))
 (let (($x2561 (= cell_7_4 7)))
 (let (($x789 (= cell_7_4 6)))
 (let (($x1693 (= cell_7_4 5)))
 (let (($x757 (= cell_7_4 4)))
 (let (($x1687 (= cell_7_4 3)))
 (let (($x4163 (= cell_7_4 2)))
 (let (($x3251 (= cell_7_4 1)))
 (or $x3251 $x4163 $x1687 $x757 $x1693 $x789 $x2561 $x3666 $x931)))))))))))
(assert
 (let (($x454 (= cell_8_4 9)))
 (let (($x420 (= cell_8_4 8)))
 (let (($x22 (= cell_8_4 7)))
 (let (($x3176 (= cell_8_4 6)))
 (let (($x1598 (= cell_8_4 5)))
 (let (($x1799 (= cell_8_4 4)))
 (let (($x1312 (= cell_8_4 3)))
 (let (($x945 (= cell_8_4 2)))
 (let (($x2661 (= cell_8_4 1)))
 (or $x2661 $x945 $x1312 $x1799 $x1598 $x3176 $x22 $x420 $x454)))))))))))
(assert
 (let (($x3255 (= cell_9_4 2)))
 (let (($x3136 (= cell_9_4 1)))
 (or $x3136 $x3255 (= cell_9_4 3) (= cell_9_4 4) (= cell_9_4 5) (= cell_9_4 6) (= cell_9_4 7) (= cell_9_4 8) (= cell_9_4 9)))))
(assert
 (let (($x2650 (= cell_1_5 9)))
 (let (($x7970 (= cell_1_5 8)))
 (let (($x1766 (= cell_1_5 7)))
 (let (($x1005 (= cell_1_5 6)))
 (let (($x1738 (= cell_1_5 5)))
 (let (($x65 (= cell_1_5 4)))
 (let (($x3193 (= cell_1_5 3)))
 (let (($x4246 (= cell_1_5 2)))
 (let (($x382 (= cell_1_5 1)))
 (or $x382 $x4246 $x3193 $x65 $x1738 $x1005 $x1766 $x7970 $x2650)))))))))))
(assert
 (let (($x2076 (= cell_2_5 9)))
 (let (($x1330 (= cell_2_5 8)))
 (let (($x3804 (= cell_2_5 7)))
 (let (($x2645 (= cell_2_5 6)))
 (let (($x2570 (= cell_2_5 5)))
 (let (($x44 (= cell_2_5 4)))
 (let (($x115 (= cell_2_5 3)))
 (let (($x1246 (= cell_2_5 2)))
 (let (($x1462 (= cell_2_5 1)))
 (or $x1462 $x1246 $x115 $x44 $x2570 $x2645 $x3804 $x1330 $x2076)))))))))))
(assert
 (let (($x2727 (= cell_3_5 2)))
 (or (= cell_3_5 1) $x2727 (= cell_3_5 3) (= cell_3_5 4) (= cell_3_5 5) (= cell_3_5 6) (= cell_3_5 7) (= cell_3_5 8) (= cell_3_5 9))))
(assert
 (let (($x352 (= cell_4_5 9)))
 (let (($x889 (= cell_4_5 8)))
 (let (($x4043 (= cell_4_5 7)))
 (let (($x2204 (= cell_4_5 6)))
 (let (($x3559 (= cell_4_5 5)))
 (let (($x3114 (= cell_4_5 4)))
 (let (($x2824 (= cell_4_5 3)))
 (let (($x1880 (= cell_4_5 2)))
 (let (($x763 (= cell_4_5 1)))
 (or $x763 $x1880 $x2824 $x3114 $x3559 $x2204 $x4043 $x889 $x352)))))))))))
(assert
 (let (($x354 (= cell_5_5 9)))
 (let (($x2651 (= cell_5_5 8)))
 (let (($x2355 (= cell_5_5 7)))
 (let (($x1304 (= cell_5_5 6)))
 (let (($x1514 (= cell_5_5 5)))
 (let (($x2093 (= cell_5_5 4)))
 (let (($x709 (= cell_5_5 3)))
 (let (($x3356 (= cell_5_5 2)))
 (let (($x1711 (= cell_5_5 1)))
 (or $x1711 $x3356 $x709 $x2093 $x1514 $x1304 $x2355 $x2651 $x354)))))))))))
(assert
 (let (($x578 (= cell_6_5 9)))
 (let (($x733 (= cell_6_5 8)))
 (let (($x2668 (= cell_6_5 7)))
 (let (($x2277 (= cell_6_5 6)))
 (let (($x3358 (= cell_6_5 5)))
 (let (($x824 (= cell_6_5 4)))
 (let (($x922 (= cell_6_5 3)))
 (let (($x2698 (= cell_6_5 2)))
 (let (($x1047 (= cell_6_5 1)))
 (or $x1047 $x2698 $x922 $x824 $x3358 $x2277 $x2668 $x733 $x578)))))))))))
(assert
 (let (($x4051 (= cell_7_5 1)))
 (or $x4051 (= cell_7_5 2) (= cell_7_5 3) (= cell_7_5 4) (= cell_7_5 5) (= cell_7_5 6) (= cell_7_5 7) (= cell_7_5 8) (= cell_7_5 9))))
(assert
 (let (($x671 (= cell_8_5 9)))
 (let (($x3712 (= cell_8_5 8)))
 (let (($x1270 (= cell_8_5 7)))
 (let (($x1903 (= cell_8_5 6)))
 (let (($x1166 (= cell_8_5 5)))
 (let (($x3244 (= cell_8_5 4)))
 (let (($x614 (= cell_8_5 3)))
 (let (($x83 (= cell_8_5 2)))
 (let (($x1916 (= cell_8_5 1)))
 (or $x1916 $x83 $x614 $x3244 $x1166 $x1903 $x1270 $x3712 $x671)))))))))))
(assert
 (let (($x7825 (= cell_9_5 2)))
 (let (($x1112 (= cell_9_5 1)))
 (or $x1112 $x7825 (= cell_9_5 3) (= cell_9_5 4) (= cell_9_5 5) (= cell_9_5 6) (= cell_9_5 7) (= cell_9_5 8) (= cell_9_5 9)))))
(assert
 (let (($x3460 (= cell_1_6 9)))
 (let (($x910 (= cell_1_6 8)))
 (let (($x561 (= cell_1_6 7)))
 (let (($x3724 (= cell_1_6 6)))
 (let (($x2251 (= cell_1_6 5)))
 (let (($x1076 (= cell_1_6 4)))
 (let (($x774 (= cell_1_6 3)))
 (let (($x4141 (= cell_1_6 2)))
 (let (($x3879 (= cell_1_6 1)))
 (or $x3879 $x4141 $x774 $x1076 $x2251 $x3724 $x561 $x910 $x3460)))))))))))
(assert
 (let (($x2181 (= cell_2_6 9)))
 (let (($x2983 (= cell_2_6 8)))
 (let (($x3191 (= cell_2_6 7)))
 (let (($x2741 (= cell_2_6 6)))
 (let (($x2463 (= cell_2_6 5)))
 (let (($x1756 (= cell_2_6 4)))
 (let (($x245 (= cell_2_6 3)))
 (let (($x3515 (= cell_2_6 2)))
 (let (($x2869 (= cell_2_6 1)))
 (or $x2869 $x3515 $x245 $x1756 $x2463 $x2741 $x3191 $x2983 $x2181)))))))))))
(assert
 (let (($x627 (= cell_3_6 9)))
 (let (($x1340 (= cell_3_6 8)))
 (let (($x3234 (= cell_3_6 7)))
 (let (($x2677 (= cell_3_6 6)))
 (let (($x1765 (= cell_3_6 5)))
 (let (($x3272 (= cell_3_6 4)))
 (let (($x40 (= cell_3_6 3)))
 (let (($x1357 (= cell_3_6 2)))
 (let (($x19 (= cell_3_6 1)))
 (or $x19 $x1357 $x40 $x3272 $x1765 $x2677 $x3234 $x1340 $x627)))))))))))
(assert
 (let (($x3915 (= cell_4_6 9)))
 (let (($x2949 (= cell_4_6 8)))
 (let (($x2622 (= cell_4_6 7)))
 (let (($x3481 (= cell_4_6 6)))
 (let (($x1982 (= cell_4_6 5)))
 (let (($x123 (= cell_4_6 4)))
 (let (($x2942 (= cell_4_6 3)))
 (let (($x429 (= cell_4_6 2)))
 (let (($x1041 (= cell_4_6 1)))
 (or $x1041 $x429 $x2942 $x123 $x1982 $x3481 $x2622 $x2949 $x3915)))))))))))
(assert
 (let (($x699 (= cell_5_6 9)))
 (let (($x947 (= cell_5_6 8)))
 (let (($x1104 (= cell_5_6 7)))
 (let (($x3647 (= cell_5_6 6)))
 (let (($x640 (= cell_5_6 5)))
 (let (($x2319 (= cell_5_6 4)))
 (let (($x7999 (= cell_5_6 3)))
 (let (($x2576 (= cell_5_6 2)))
 (let (($x3357 (= cell_5_6 1)))
 (or $x3357 $x2576 $x7999 $x2319 $x640 $x3647 $x1104 $x947 $x699)))))))))))
(assert
 (let (($x133 (= cell_6_6 1)))
 (or $x133 (= cell_6_6 2) (= cell_6_6 3) (= cell_6_6 4) (= cell_6_6 5) (= cell_6_6 6) (= cell_6_6 7) (= cell_6_6 8) (= cell_6_6 9))))
(assert
 (let (($x2688 (= cell_7_6 2)))
 (let (($x1688 (= cell_7_6 1)))
 (or $x1688 $x2688 (= cell_7_6 3) (= cell_7_6 4) (= cell_7_6 5) (= cell_7_6 6) (= cell_7_6 7) (= cell_7_6 8) (= cell_7_6 9)))))
(assert
 (let (($x430 (= cell_8_6 9)))
 (let (($x3298 (= cell_8_6 8)))
 (let (($x1079 (= cell_8_6 7)))
 (let (($x1785 (= cell_8_6 6)))
 (let (($x1083 (= cell_8_6 5)))
 (let (($x752 (= cell_8_6 4)))
 (let (($x2322 (= cell_8_6 3)))
 (let (($x1189 (= cell_8_6 2)))
 (let (($x1793 (= cell_8_6 1)))
 (or $x1793 $x1189 $x2322 $x752 $x1083 $x1785 $x1079 $x3298 $x430)))))))))))
(assert
 (let (($x2417 (= cell_9_6 2)))
 (let (($x1792 (= cell_9_6 1)))
 (or $x1792 $x2417 (= cell_9_6 3) (= cell_9_6 4) (= cell_9_6 5) (= cell_9_6 6) (= cell_9_6 7) (= cell_9_6 8) (= cell_9_6 9)))))
(assert
 (let (($x2153 (= cell_1_7 2)))
 (or (= cell_1_7 1) $x2153 (= cell_1_7 3) (= cell_1_7 4) (= cell_1_7 5) (= cell_1_7 6) (= cell_1_7 7) (= cell_1_7 8) (= cell_1_7 9))))
(assert
 (let (($x1059 (= cell_2_7 9)))
 (let (($x347 (= cell_2_7 8)))
 (let (($x1935 (= cell_2_7 7)))
 (let (($x1157 (= cell_2_7 6)))
 (let (($x2000 (= cell_2_7 5)))
 (let (($x2575 (= cell_2_7 4)))
 (let (($x3194 (= cell_2_7 3)))
 (let (($x2342 (= cell_2_7 2)))
 (let (($x929 (= cell_2_7 1)))
 (or $x929 $x2342 $x3194 $x2575 $x2000 $x1157 $x1935 $x347 $x1059)))))))))))
(assert
 (let (($x2235 (= cell_3_7 9)))
 (let (($x1122 (= cell_3_7 8)))
 (let (($x2936 (= cell_3_7 7)))
 (let (($x887 (= cell_3_7 6)))
 (let (($x628 (= cell_3_7 5)))
 (let (($x2064 (= cell_3_7 4)))
 (let (($x367 (= cell_3_7 3)))
 (let (($x1244 (= cell_3_7 2)))
 (let (($x2669 (= cell_3_7 1)))
 (or $x2669 $x1244 $x367 $x2064 $x628 $x887 $x2936 $x1122 $x2235)))))))))))
(assert
 (let (($x626 (= cell_4_7 1)))
 (or $x626 (= cell_4_7 2) (= cell_4_7 3) (= cell_4_7 4) (= cell_4_7 5) (= cell_4_7 6) (= cell_4_7 7) (= cell_4_7 8) (= cell_4_7 9))))
(assert
 (let (($x639 (= cell_5_7 2)))
 (let (($x549 (= cell_5_7 1)))
 (or $x549 $x639 (= cell_5_7 3) (= cell_5_7 4) (= cell_5_7 5) (= cell_5_7 6) (= cell_5_7 7) (= cell_5_7 8) (= cell_5_7 9)))))
(assert
 (let (($x991 (= cell_6_7 9)))
 (let (($x1647 (= cell_6_7 8)))
 (let (($x987 (= cell_6_7 7)))
 (let (($x7788 (= cell_6_7 6)))
 (let (($x317 (= cell_6_7 5)))
 (let (($x4174 (= cell_6_7 4)))
 (let (($x2461 (= cell_6_7 3)))
 (let (($x838 (= cell_6_7 2)))
 (let (($x2731 (= cell_6_7 1)))
 (or $x2731 $x838 $x2461 $x4174 $x317 $x7788 $x987 $x1647 $x991)))))))))))
(assert
 (let (($x1821 (= cell_7_7 9)))
 (let (($x1736 (= cell_7_7 8)))
 (let (($x3376 (= cell_7_7 7)))
 (let (($x1949 (= cell_7_7 6)))
 (let (($x564 (= cell_7_7 5)))
 (let (($x2925 (= cell_7_7 4)))
 (let (($x310 (= cell_7_7 3)))
 (let (($x3062 (= cell_7_7 2)))
 (let (($x2024 (= cell_7_7 1)))
 (or $x2024 $x3062 $x310 $x2925 $x564 $x1949 $x3376 $x1736 $x1821)))))))))))
(assert
 (let (($x1128 (= cell_8_7 9)))
 (let (($x2573 (= cell_8_7 8)))
 (let (($x2494 (= cell_8_7 7)))
 (let (($x337 (= cell_8_7 6)))
 (let (($x1969 (= cell_8_7 5)))
 (let (($x1138 (= cell_8_7 4)))
 (let (($x1195 (= cell_8_7 3)))
 (let (($x25 (= cell_8_7 2)))
 (let (($x2407 (= cell_8_7 1)))
 (or $x2407 $x25 $x1195 $x1138 $x1969 $x337 $x2494 $x2573 $x1128)))))))))))
(assert
 (let (($x2316 (= cell_9_7 2)))
 (let (($x2280 (= cell_9_7 1)))
 (or $x2280 $x2316 (= cell_9_7 3) (= cell_9_7 4) (= cell_9_7 5) (= cell_9_7 6) (= cell_9_7 7) (= cell_9_7 8) (= cell_9_7 9)))))
(assert
 (let (($x3763 (= cell_1_8 9)))
 (let (($x7814 (= cell_1_8 8)))
 (let (($x2481 (= cell_1_8 7)))
 (let (($x4112 (= cell_1_8 6)))
 (let (($x7650 (= cell_1_8 5)))
 (let (($x7805 (= cell_1_8 4)))
 (let (($x1931 (= cell_1_8 3)))
 (let (($x4211 (= cell_1_8 2)))
 (let (($x2315 (= cell_1_8 1)))
 (or $x2315 $x4211 $x1931 $x7805 $x7650 $x4112 $x2481 $x7814 $x3763)))))))))))
(assert
 (let (($x2055 (= cell_2_8 1)))
 (or $x2055 (= cell_2_8 2) (= cell_2_8 3) (= cell_2_8 4) (= cell_2_8 5) (= cell_2_8 6) (= cell_2_8 7) (= cell_2_8 8) (= cell_2_8 9))))
(assert
 (let (($x2628 (= cell_3_8 9)))
 (let (($x799 (= cell_3_8 8)))
 (let (($x2723 (= cell_3_8 7)))
 (let (($x2313 (= cell_3_8 6)))
 (let (($x2558 (= cell_3_8 5)))
 (let (($x588 (= cell_3_8 4)))
 (let (($x861 (= cell_3_8 3)))
 (let (($x814 (= cell_3_8 2)))
 (let (($x3574 (= cell_3_8 1)))
 (or $x3574 $x814 $x861 $x588 $x2558 $x2313 $x2723 $x799 $x2628)))))))))))
(assert
 (let (($x3926 (= cell_4_8 9)))
 (let (($x7634 (= cell_4_8 8)))
 (let (($x1364 (= cell_4_8 7)))
 (let (($x2128 (= cell_4_8 6)))
 (let (($x794 (= cell_4_8 5)))
 (let (($x605 (= cell_4_8 4)))
 (let (($x1817 (= cell_4_8 3)))
 (let (($x7771 (= cell_4_8 2)))
 (let (($x2882 (= cell_4_8 1)))
 (or $x2882 $x7771 $x1817 $x605 $x794 $x2128 $x1364 $x7634 $x3926)))))))))))
(assert
 (let (($x552 (= cell_5_8 9)))
 (let (($x1446 (= cell_5_8 8)))
 (let (($x2785 (= cell_5_8 7)))
 (let (($x1606 (= cell_5_8 6)))
 (let (($x2429 (= cell_5_8 5)))
 (let (($x1697 (= cell_5_8 4)))
 (let (($x815 (= cell_5_8 3)))
 (let (($x3510 (= cell_5_8 2)))
 (let (($x7975 (= cell_5_8 1)))
 (or $x7975 $x3510 $x815 $x1697 $x2429 $x1606 $x2785 $x1446 $x552)))))))))))
(assert
 (let (($x2968 (= cell_6_8 9)))
 (let (($x306 (= cell_6_8 8)))
 (let (($x417 (= cell_6_8 7)))
 (let (($x866 (= cell_6_8 6)))
 (let (($x418 (= cell_6_8 5)))
 (let (($x1904 (= cell_6_8 4)))
 (let (($x1888 (= cell_6_8 3)))
 (let (($x1636 (= cell_6_8 2)))
 (let (($x471 (= cell_6_8 1)))
 (or $x471 $x1636 $x1888 $x1904 $x418 $x866 $x417 $x306 $x2968)))))))))))
(assert
 (let (($x3451 (= cell_7_8 9)))
 (let (($x3168 (= cell_7_8 8)))
 (let (($x2053 (= cell_7_8 7)))
 (let (($x776 (= cell_7_8 6)))
 (let (($x2500 (= cell_7_8 5)))
 (let (($x1099 (= cell_7_8 4)))
 (let (($x2267 (= cell_7_8 3)))
 (let (($x1485 (= cell_7_8 2)))
 (let (($x1325 (= cell_7_8 1)))
 (or $x1325 $x1485 $x2267 $x1099 $x2500 $x776 $x2053 $x3168 $x3451)))))))))))
(assert
 (let (($x1870 (= cell_8_8 2)))
 (or (= cell_8_8 1) $x1870 (= cell_8_8 3) (= cell_8_8 4) (= cell_8_8 5) (= cell_8_8 6) (= cell_8_8 7) (= cell_8_8 8) (= cell_8_8 9))))
(assert
 (let (($x508 (= cell_9_8 2)))
 (let (($x1004 (= cell_9_8 1)))
 (or $x1004 $x508 (= cell_9_8 3) (= cell_9_8 4) (= cell_9_8 5) (= cell_9_8 6) (= cell_9_8 7) (= cell_9_8 8) (= cell_9_8 9)))))
(assert
 (let (($x2632 (= cell_1_9 9)))
 (let (($x2872 (= cell_1_9 8)))
 (let (($x2618 (= cell_1_9 7)))
 (let (($x2475 (= cell_1_9 6)))
 (let (($x3070 (= cell_1_9 5)))
 (let (($x2077 (= cell_1_9 4)))
 (let (($x1747 (= cell_1_9 3)))
 (let (($x612 (= cell_1_9 2)))
 (let (($x7663 (= cell_1_9 1)))
 (or $x7663 $x612 $x1747 $x2077 $x3070 $x2475 $x2618 $x2872 $x2632)))))))))))
(assert
 (let (($x3823 (= cell_2_9 9)))
 (let (($x1527 (= cell_2_9 8)))
 (let (($x2742 (= cell_2_9 7)))
 (let (($x3682 (= cell_2_9 6)))
 (let (($x2190 (= cell_2_9 5)))
 (let (($x3632 (= cell_2_9 4)))
 (let (($x1130 (= cell_2_9 3)))
 (let (($x607 (= cell_2_9 2)))
 (let (($x2930 (= cell_2_9 1)))
 (or $x2930 $x607 $x1130 $x3632 $x2190 $x3682 $x2742 $x1527 $x3823)))))))))))
(assert
 (let (($x3457 (= cell_3_9 9)))
 (let (($x1612 (= cell_3_9 8)))
 (let (($x2040 (= cell_3_9 7)))
 (let (($x1517 (= cell_3_9 6)))
 (let (($x3815 (= cell_3_9 5)))
 (let (($x261 (= cell_3_9 4)))
 (let (($x7867 (= cell_3_9 3)))
 (let (($x3308 (= cell_3_9 2)))
 (let (($x101 (= cell_3_9 1)))
 (or $x101 $x3308 $x7867 $x261 $x3815 $x1517 $x2040 $x1612 $x3457)))))))))))
(assert
 (let (($x472 (= cell_4_9 2)))
 (or (= cell_4_9 1) $x472 (= cell_4_9 3) (= cell_4_9 4) (= cell_4_9 5) (= cell_4_9 6) (= cell_4_9 7) (= cell_4_9 8) (= cell_4_9 9))))
(assert
 (let (($x2805 (= cell_5_9 9)))
 (let (($x341 (= cell_5_9 8)))
 (let (($x1496 (= cell_5_9 7)))
 (let (($x2624 (= cell_5_9 6)))
 (let (($x4045 (= cell_5_9 5)))
 (let (($x2151 (= cell_5_9 4)))
 (let (($x664 (= cell_5_9 3)))
 (let (($x7700 (= cell_5_9 2)))
 (let (($x7795 (= cell_5_9 1)))
 (or $x7795 $x7700 $x664 $x2151 $x4045 $x2624 $x1496 $x341 $x2805)))))))))))
(assert
 (let (($x1567 (= cell_6_9 9)))
 (let (($x992 (= cell_6_9 8)))
 (let (($x2973 (= cell_6_9 7)))
 (let (($x1802 (= cell_6_9 6)))
 (let (($x3142 (= cell_6_9 5)))
 (let (($x2101 (= cell_6_9 4)))
 (let (($x235 (= cell_6_9 3)))
 (let (($x2853 (= cell_6_9 2)))
 (let (($x2833 (= cell_6_9 1)))
 (or $x2833 $x2853 $x235 $x2101 $x3142 $x1802 $x2973 $x992 $x1567)))))))))))
(assert
 (let (($x936 (= cell_7_9 9)))
 (let (($x3860 (= cell_7_9 8)))
 (let (($x3557 (= cell_7_9 7)))
 (let (($x1143 (= cell_7_9 6)))
 (let (($x2633 (= cell_7_9 5)))
 (let (($x547 (= cell_7_9 4)))
 (let (($x534 (= cell_7_9 3)))
 (let (($x878 (= cell_7_9 2)))
 (let (($x2994 (= cell_7_9 1)))
 (or $x2994 $x878 $x534 $x547 $x2633 $x1143 $x3557 $x3860 $x936)))))))))))
(assert
 (let (($x2765 (= cell_8_9 1)))
 (or $x2765 (= cell_8_9 2) (= cell_8_9 3) (= cell_8_9 4) (= cell_8_9 5) (= cell_8_9 6) (= cell_8_9 7) (= cell_8_9 8) (= cell_8_9 9))))
(assert
 (let (($x3183 (= cell_9_9 2)))
 (let (($x1206 (= cell_9_9 1)))
 (or $x1206 $x3183 (= cell_9_9 3) (= cell_9_9 4) (= cell_9_9 5) (= cell_9_9 6) (= cell_9_9 7) (= cell_9_9 8) (= cell_9_9 9)))))
(assert
 (and (distinct cell_1_1 cell_1_2 cell_1_3 cell_1_4 cell_1_5 cell_1_6 cell_1_7 cell_1_8 cell_1_9) true))
(assert
 (and (distinct cell_2_1 cell_2_2 cell_2_3 cell_2_4 cell_2_5 cell_2_6 cell_2_7 cell_2_8 cell_2_9) true))
(assert
 (and (distinct cell_3_1 cell_3_2 cell_3_3 cell_3_4 cell_3_5 cell_3_6 cell_3_7 cell_3_8 cell_3_9) true))
(assert
 (and (distinct cell_4_1 cell_4_2 cell_4_3 cell_4_4 cell_4_5 cell_4_6 cell_4_7 cell_4_8 cell_4_9) true))
(assert
 (and (distinct cell_5_1 cell_5_2 cell_5_3 cell_5_4 cell_5_5 cell_5_6 cell_5_7 cell_5_8 cell_5_9) true))
(assert
 (and (distinct cell_6_1 cell_6_2 cell_6_3 cell_6_4 cell_6_5 cell_6_6 cell_6_7 cell_6_8 cell_6_9) true))
(assert
 (and (distinct cell_7_1 cell_7_2 cell_7_3 cell_7_4 cell_7_5 cell_7_6 cell_7_7 cell_7_8 cell_7_9) true))
(assert
 (and (distinct cell_8_1 cell_8_2 cell_8_3 cell_8_4 cell_8_5 cell_8_6 cell_8_7 cell_8_8 cell_8_9) true))
(assert
 (and (distinct cell_9_1 cell_9_2 cell_9_3 cell_9_4 cell_9_5 cell_9_6 cell_9_7 cell_9_8 cell_9_9) true))
(assert
 (and (distinct cell_1_1 cell_2_1 cell_3_1 cell_4_1 cell_5_1 cell_6_1 cell_7_1 cell_8_1 cell_9_1) true))
(assert
 (and (distinct cell_1_2 cell_2_2 cell_3_2 cell_4_2 cell_5_2 cell_6_2 cell_7_2 cell_8_2 cell_9_2) true))
(assert
 (and (distinct cell_1_3 cell_2_3 cell_3_3 cell_4_3 cell_5_3 cell_6_3 cell_7_3 cell_8_3 cell_9_3) true))
(assert
 (and (distinct cell_1_4 cell_2_4 cell_3_4 cell_4_4 cell_5_4 cell_6_4 cell_7_4 cell_8_4 cell_9_4) true))
(assert
 (and (distinct cell_1_5 cell_2_5 cell_3_5 cell_4_5 cell_5_5 cell_6_5 cell_7_5 cell_8_5 cell_9_5) true))
(assert
 (and (distinct cell_1_6 cell_2_6 cell_3_6 cell_4_6 cell_5_6 cell_6_6 cell_7_6 cell_8_6 cell_9_6) true))
(assert
 (and (distinct cell_1_7 cell_2_7 cell_3_7 cell_4_7 cell_5_7 cell_6_7 cell_7_7 cell_8_7 cell_9_7) true))
(assert
 (and (distinct cell_1_8 cell_2_8 cell_3_8 cell_4_8 cell_5_8 cell_6_8 cell_7_8 cell_8_8 cell_9_8) true))
(assert
 (and (distinct cell_1_9 cell_2_9 cell_3_9 cell_4_9 cell_5_9 cell_6_9 cell_7_9 cell_8_9 cell_9_9) true))
(assert
 (and (distinct cell_1_1 cell_1_2 cell_1_3 cell_2_1 cell_2_2 cell_2_3 cell_3_1 cell_3_2 cell_3_3) true))
(assert
 (and (distinct cell_1_4 cell_1_5 cell_1_6 cell_2_4 cell_2_5 cell_2_6 cell_3_4 cell_3_5 cell_3_6) true))
(assert
 (and (distinct cell_1_7 cell_1_8 cell_1_9 cell_2_7 cell_2_8 cell_2_9 cell_3_7 cell_3_8 cell_3_9) true))
(assert
 (and (distinct cell_4_1 cell_4_2 cell_4_3 cell_5_1 cell_5_2 cell_5_3 cell_6_1 cell_6_2 cell_6_3) true))
(assert
 (and (distinct cell_4_4 cell_4_5 cell_4_6 cell_5_4 cell_5_5 cell_5_6 cell_6_4 cell_6_5 cell_6_6) true))
(assert
 (and (distinct cell_4_7 cell_4_8 cell_4_9 cell_5_7 cell_5_8 cell_5_9 cell_6_7 cell_6_8 cell_6_9) true))
(assert
 (and (distinct cell_7_1 cell_7_2 cell_7_3 cell_8_1 cell_8_2 cell_8_3 cell_9_1 cell_9_2 cell_9_3) true))
(assert
 (and (distinct cell_7_4 cell_7_5 cell_7_6 cell_8_4 cell_8_5 cell_8_6 cell_9_4 cell_9_5 cell_9_6) true))
(assert
 (and (distinct cell_7_7 cell_7_8 cell_7_9 cell_8_7 cell_8_8 cell_8_9 cell_9_7 cell_9_8 cell_9_9) true))
(assert
 (let (($x1421 (and (distinct cell_5_9 cell_6_8 cell_7_7 cell_8_6) true)))
 (let (($x1387 (and (distinct cell_2_9 cell_3_8 cell_4_7 cell_5_6 cell_6_5 cell_7_4 cell_8_3 cell_9_2) true)))
 (let (($x2232 (and (distinct cell_1_8 cell_2_7 cell_3_6 cell_4_5 cell_5_4 cell_6_3 cell_7_2 cell_8_1) true)))
 (let (($x3951 (and (distinct cell_1_5 cell_2_4 cell_3_3 cell_4_2) true)))
 (let (($x2772 (and (distinct cell_5_1 cell_6_2 cell_7_3 cell_8_4) true)))
 (let (($x2373 (and (distinct cell_2_1 cell_3_2 cell_4_3 cell_5_4 cell_6_5 cell_7_6 cell_8_7 cell_9_8) true)))
 (let (($x908 (and (distinct cell_1_2 cell_2_3 cell_3_4 cell_4_5 cell_5_6 cell_6_7 cell_7_8 cell_8_9) true)))
 (let (($x3083 (and (distinct cell_1_5 cell_2_6 cell_3_7 cell_4_8) true)))
 (and $x3083 $x908 $x2373 $x2772 $x3951 $x2232 $x1387 $x1421))))))))))
(assert
 (= cell_9_6 2))
(check-sat)
